c Standarized MaxSat Instance
c{
c "sha1sum": "274230e68bd60e456efe252ab030fda9b4f01412",
c "nvars": 40,
c "ncls": 1120,
c "nhards": 0,
c "nhard_len_stats":
c    { "min": 0, "max": 0, "ave": 0.00,
c      "stddev": 0.00 },
c "nsofts": 1120,
c "nsoft_len_stats":
c    { "min": 2, "max": 2, "ave": 2.00,
c      "stddev": 0.00 },
c "nsoft_wts": 10,
c "soft_wt_stats":
c    { "min": 1, "max": 10, "ave": 5.65,
c      "stddev": 2.81 }
c}
c------------------------------------------------------------
c File:  san400_0.7_1.clq
c
c SOURCE: Laura Sanchis (laura@cs.colgate.edu)
c
c REFERENCE: "Test Case Construction for the Vertex Cover Problem", 
c DIMACS Workshop on Computational Support for Discrete Mathematics, 
c March, 1992, with additional work in a to be published technical
c report.
c
c 400 vertices 55860 edges 40 max clique
c 400 23940 360 6352 139744 20
p wcnf 40 1120 6331
9 1 3 0
9 -1 -3 0
4 1 4 0
4 -1 -4 0
8 1 7 0
8 -1 -7 0
8 1 8 0
8 -1 -8 0
10 1 9 0
10 -1 -9 0
2 1 10 0
2 -1 -10 0
4 1 11 0
4 -1 -11 0
8 1 12 0
8 -1 -12 0
3 1 13 0
3 -1 -13 0
6 1 15 0
6 -1 -15 0
5 1 17 0
5 -1 -17 0
7 1 18 0
7 -1 -18 0
4 1 19 0
4 -1 -19 0
6 1 20 0
6 -1 -20 0
10 1 21 0
10 -1 -21 0
10 1 22 0
10 -1 -22 0
7 1 25 0
7 -1 -25 0
8 1 26 0
8 -1 -26 0
2 1 28 0
2 -1 -28 0
7 1 29 0
7 -1 -29 0
1 1 32 0
1 -1 -32 0
3 1 33 0
3 -1 -33 0
2 1 34 0
2 -1 -34 0
9 1 35 0
9 -1 -35 0
2 1 36 0
2 -1 -36 0
5 1 37 0
5 -1 -37 0
2 1 38 0
2 -1 -38 0
2 1 39 0
2 -1 -39 0
10 2 5 0
10 -2 -5 0
3 2 6 0
3 -2 -6 0
6 2 7 0
6 -2 -7 0
9 2 8 0
9 -2 -8 0
7 2 9 0
7 -2 -9 0
3 2 10 0
3 -2 -10 0
7 2 11 0
7 -2 -11 0
6 2 12 0
6 -2 -12 0
5 2 14 0
5 -2 -14 0
10 2 15 0
10 -2 -15 0
3 2 16 0
3 -2 -16 0
8 2 17 0
8 -2 -17 0
6 2 20 0
6 -2 -20 0
8 2 21 0
8 -2 -21 0
5 2 22 0
5 -2 -22 0
9 2 23 0
9 -2 -23 0
3 2 24 0
3 -2 -24 0
4 2 26 0
4 -2 -26 0
9 2 27 0
9 -2 -27 0
10 2 28 0
10 -2 -28 0
1 2 29 0
1 -2 -29 0
10 2 30 0
10 -2 -30 0
6 2 31 0
6 -2 -31 0
1 2 32 0
1 -2 -32 0
2 2 34 0
2 -2 -34 0
7 2 38 0
7 -2 -38 0
9 2 39 0
9 -2 -39 0
4 2 40 0
4 -2 -40 0
1 3 4 0
1 -3 -4 0
1 3 6 0
1 -3 -6 0
5 3 7 0
5 -3 -7 0
1 3 8 0
1 -3 -8 0
3 3 9 0
3 -3 -9 0
10 3 11 0
10 -3 -11 0
10 3 12 0
10 -3 -12 0
9 3 13 0
9 -3 -13 0
3 3 14 0
3 -3 -14 0
6 3 17 0
6 -3 -17 0
4 3 18 0
4 -3 -18 0
8 3 19 0
8 -3 -19 0
6 3 20 0
6 -3 -20 0
7 3 21 0
7 -3 -21 0
6 3 22 0
6 -3 -22 0
1 3 25 0
1 -3 -25 0
5 3 26 0
5 -3 -26 0
10 3 28 0
10 -3 -28 0
10 3 29 0
10 -3 -29 0
8 3 30 0
8 -3 -30 0
3 3 32 0
3 -3 -32 0
8 3 33 0
8 -3 -33 0
7 3 34 0
7 -3 -34 0
4 3 35 0
4 -3 -35 0
7 3 37 0
7 -3 -37 0
2 3 38 0
2 -3 -38 0
5 3 39 0
5 -3 -39 0
9 3 40 0
9 -3 -40 0
9 4 5 0
9 -4 -5 0
4 4 6 0
4 -4 -6 0
3 4 7 0
3 -4 -7 0
9 4 8 0
9 -4 -8 0
4 4 9 0
4 -4 -9 0
7 4 10 0
7 -4 -10 0
10 4 12 0
10 -4 -12 0
6 4 13 0
6 -4 -13 0
7 4 14 0
7 -4 -14 0
9 4 15 0
9 -4 -15 0
5 4 16 0
5 -4 -16 0
10 4 18 0
10 -4 -18 0
4 4 19 0
4 -4 -19 0
9 4 20 0
9 -4 -20 0
7 4 21 0
7 -4 -21 0
10 4 22 0
10 -4 -22 0
5 4 24 0
5 -4 -24 0
3 4 25 0
3 -4 -25 0
10 4 29 0
10 -4 -29 0
10 4 32 0
10 -4 -32 0
2 4 33 0
2 -4 -33 0
9 4 34 0
9 -4 -34 0
7 4 35 0
7 -4 -35 0
5 4 36 0
5 -4 -36 0
7 4 37 0
7 -4 -37 0
3 4 38 0
3 -4 -38 0
8 4 39 0
8 -4 -39 0
4 5 6 0
4 -5 -6 0
5 5 9 0
5 -5 -9 0
3 5 10 0
3 -5 -10 0
2 5 13 0
2 -5 -13 0
3 5 14 0
3 -5 -14 0
6 5 15 0
6 -5 -15 0
5 5 16 0
5 -5 -16 0
2 5 18 0
2 -5 -18 0
10 5 21 0
10 -5 -21 0
2 5 22 0
2 -5 -22 0
2 5 23 0
2 -5 -23 0
5 5 24 0
5 -5 -24 0
8 5 25 0
8 -5 -25 0
10 5 26 0
10 -5 -26 0
10 5 27 0
10 -5 -27 0
7 5 28 0
7 -5 -28 0
4 5 30 0
4 -5 -30 0
8 5 31 0
8 -5 -31 0
4 5 32 0
4 -5 -32 0
3 5 33 0
3 -5 -33 0
3 5 34 0
3 -5 -34 0
6 5 35 0
6 -5 -35 0
3 5 36 0
3 -5 -36 0
2 5 37 0
2 -5 -37 0
8 5 39 0
8 -5 -39 0
2 5 40 0
2 -5 -40 0
8 6 9 0
8 -6 -9 0
2 6 10 0
2 -6 -10 0
8 6 11 0
8 -6 -11 0
1 6 12 0
1 -6 -12 0
10 6 14 0
10 -6 -14 0
1 6 15 0
1 -6 -15 0
6 6 16 0
6 -6 -16 0
2 6 17 0
2 -6 -17 0
3 6 20 0
3 -6 -20 0
8 6 23 0
8 -6 -23 0
8 6 24 0
8 -6 -24 0
7 6 25 0
7 -6 -25 0
10 6 26 0
10 -6 -26 0
7 6 27 0
7 -6 -27 0
8 6 28 0
8 -6 -28 0
1 6 30 0
1 -6 -30 0
2 6 31 0
2 -6 -31 0
6 6 35 0
6 -6 -35 0
1 6 36 0
1 -6 -36 0
1 6 38 0
1 -6 -38 0
3 6 39 0
3 -6 -39 0
5 6 40 0
5 -6 -40 0
9 7 8 0
9 -7 -8 0
6 7 9 0
6 -7 -9 0
8 7 11 0
8 -7 -11 0
1 7 12 0
1 -7 -12 0
2 7 13 0
2 -7 -13 0
10 7 14 0
10 -7 -14 0
3 7 17 0
3 -7 -17 0
9 7 18 0
9 -7 -18 0
2 7 19 0
2 -7 -19 0
10 7 20 0
10 -7 -20 0
1 7 21 0
1 -7 -21 0
9 7 25 0
9 -7 -25 0
1 7 27 0
1 -7 -27 0
1 7 28 0
1 -7 -28 0
10 7 29 0
10 -7 -29 0
6 7 30 0
6 -7 -30 0
2 7 32 0
2 -7 -32 0
2 7 33 0
2 -7 -33 0
4 7 34 0
4 -7 -34 0
10 7 37 0
10 -7 -37 0
9 7 38 0
9 -7 -38 0
4 7 39 0
4 -7 -39 0
6 8 11 0
6 -8 -11 0
6 8 12 0
6 -8 -12 0
5 8 13 0
5 -8 -13 0
7 8 14 0
7 -8 -14 0
1 8 16 0
1 -8 -16 0
6 8 17 0
6 -8 -17 0
8 8 18 0
8 -8 -18 0
4 8 19 0
4 -8 -19 0
10 8 20 0
10 -8 -20 0
6 8 21 0
6 -8 -21 0
9 8 22 0
9 -8 -22 0
8 8 23 0
8 -8 -23 0
7 8 24 0
7 -8 -24 0
1 8 25 0
1 -8 -25 0
8 8 26 0
8 -8 -26 0
9 8 27 0
9 -8 -27 0
10 8 29 0
10 -8 -29 0
9 8 30 0
9 -8 -30 0
9 8 32 0
9 -8 -32 0
10 8 33 0
10 -8 -33 0
8 8 34 0
8 -8 -34 0
10 8 35 0
10 -8 -35 0
10 8 36 0
10 -8 -36 0
7 8 37 0
7 -8 -37 0
5 8 38 0
5 -8 -38 0
2 8 39 0
2 -8 -39 0
9 8 40 0
9 -8 -40 0
9 9 10 0
9 -9 -10 0
1 9 14 0
1 -9 -14 0
7 9 15 0
7 -9 -15 0
3 9 16 0
3 -9 -16 0
7 9 18 0
7 -9 -18 0
3 9 19 0
3 -9 -19 0
8 9 21 0
8 -9 -21 0
4 9 23 0
4 -9 -23 0
4 9 24 0
4 -9 -24 0
3 9 25 0
3 -9 -25 0
1 9 26 0
1 -9 -26 0
7 9 27 0
7 -9 -27 0
3 9 28 0
3 -9 -28 0
7 9 29 0
7 -9 -29 0
6 9 30 0
6 -9 -30 0
10 9 31 0
10 -9 -31 0
3 9 35 0
3 -9 -35 0
6 9 36 0
6 -9 -36 0
8 9 38 0
8 -9 -38 0
2 9 39 0
2 -9 -39 0
5 9 40 0
5 -9 -40 0
6 10 11 0
6 -10 -11 0
10 10 12 0
10 -10 -12 0
5 10 14 0
5 -10 -14 0
4 10 15 0
4 -10 -15 0
9 10 16 0
9 -10 -16 0
5 10 20 0
5 -10 -20 0
1 10 21 0
1 -10 -21 0
4 10 22 0
4 -10 -22 0
6 10 23 0
6 -10 -23 0
9 10 24 0
9 -10 -24 0
3 10 26 0
3 -10 -26 0
7 10 27 0
7 -10 -27 0
5 10 28 0
5 -10 -28 0
5 10 30 0
5 -10 -30 0
4 10 32 0
4 -10 -32 0
8 10 33 0
8 -10 -33 0
2 10 36 0
2 -10 -36 0
7 10 40 0
7 -10 -40 0
1 11 12 0
1 -11 -12 0
5 11 13 0
5 -11 -13 0
7 11 14 0
7 -11 -14 0
7 11 15 0
7 -11 -15 0
7 11 18 0
7 -11 -18 0
4 11 19 0
4 -11 -19 0
2 11 20 0
2 -11 -20 0
7 11 21 0
7 -11 -21 0
7 11 22 0
7 -11 -22 0
8 11 23 0
8 -11 -23 0
4 11 24 0
4 -11 -24 0
8 11 25 0
8 -11 -25 0
3 11 27 0
3 -11 -27 0
10 11 28 0
10 -11 -28 0
7 11 29 0
7 -11 -29 0
7 11 30 0
7 -11 -30 0
3 11 32 0
3 -11 -32 0
6 11 33 0
6 -11 -33 0
1 11 34 0
1 -11 -34 0
3 11 35 0
3 -11 -35 0
9 11 37 0
9 -11 -37 0
7 11 38 0
7 -11 -38 0
1 11 39 0
1 -11 -39 0
2 11 40 0
2 -11 -40 0
4 12 13 0
4 -12 -13 0
6 12 17 0
6 -12 -17 0
6 12 18 0
6 -12 -18 0
7 12 19 0
7 -12 -19 0
3 12 20 0
3 -12 -20 0
8 12 22 0
8 -12 -22 0
3 12 23 0
3 -12 -23 0
4 12 24 0
4 -12 -24 0
2 12 25 0
2 -12 -25 0
10 12 27 0
10 -12 -27 0
1 12 29 0
1 -12 -29 0
9 12 30 0
9 -12 -30 0
4 12 32 0
4 -12 -32 0
2 12 33 0
2 -12 -33 0
5 12 34 0
5 -12 -34 0
10 12 35 0
10 -12 -35 0
10 12 36 0
10 -12 -36 0
8 12 37 0
8 -12 -37 0
7 12 38 0
7 -12 -38 0
2 12 39 0
2 -12 -39 0
7 13 14 0
7 -13 -14 0
4 13 15 0
4 -13 -15 0
8 13 16 0
8 -13 -16 0
10 13 17 0
10 -13 -17 0
10 13 18 0
10 -13 -18 0
9 13 19 0
9 -13 -19 0
3 13 20 0
3 -13 -20 0
8 13 22 0
8 -13 -22 0
6 13 24 0
6 -13 -24 0
3 13 25 0
3 -13 -25 0
10 13 29 0
10 -13 -29 0
10 13 32 0
10 -13 -32 0
9 13 33 0
9 -13 -33 0
5 13 34 0
5 -13 -34 0
6 13 35 0
6 -13 -35 0
2 13 37 0
2 -13 -37 0
3 13 38 0
3 -13 -38 0
9 13 39 0
9 -13 -39 0
5 13 40 0
5 -13 -40 0
5 14 15 0
5 -14 -15 0
9 14 16 0
9 -14 -16 0
5 14 17 0
5 -14 -17 0
3 14 20 0
3 -14 -20 0
2 14 21 0
2 -14 -21 0
7 14 23 0
7 -14 -23 0
8 14 24 0
8 -14 -24 0
2 14 26 0
2 -14 -26 0
7 14 27 0
7 -14 -27 0
5 14 28 0
5 -14 -28 0
9 14 29 0
9 -14 -29 0
8 14 30 0
8 -14 -30 0
2 14 31 0
2 -14 -31 0
3 14 32 0
3 -14 -32 0
5 14 36 0
5 -14 -36 0
2 14 38 0
2 -14 -38 0
2 14 40 0
2 -14 -40 0
4 15 16 0
4 -15 -16 0
4 15 17 0
4 -15 -17 0
10 15 18 0
10 -15 -18 0
10 15 19 0
10 -15 -19 0
7 15 21 0
7 -15 -21 0
9 15 24 0
9 -15 -24 0
9 15 25 0
9 -15 -25 0
5 15 26 0
5 -15 -26 0
4 15 27 0
4 -15 -27 0
4 15 30 0
4 -15 -30 0
7 15 31 0
7 -15 -31 0
7 15 32 0
7 -15 -32 0
3 15 34 0
3 -15 -34 0
2 15 36 0
2 -15 -36 0
1 15 37 0
1 -15 -37 0
2 15 39 0
2 -15 -39 0
7 15 40 0
7 -15 -40 0
4 16 19 0
4 -16 -19 0
3 16 20 0
3 -16 -20 0
4 16 21 0
4 -16 -21 0
1 16 23 0
1 -16 -23 0
5 16 24 0
5 -16 -24 0
10 16 26 0
10 -16 -26 0
6 16 27 0
6 -16 -27 0
3 16 28 0
3 -16 -28 0
7 16 29 0
7 -16 -29 0
8 16 30 0
8 -16 -30 0
5 16 31 0
5 -16 -31 0
2 16 36 0
2 -16 -36 0
9 16 37 0
9 -16 -37 0
7 16 39 0
7 -16 -39 0
6 16 40 0
6 -16 -40 0
3 17 18 0
3 -17 -18 0
6 17 19 0
6 -17 -19 0
5 17 20 0
5 -17 -20 0
9 17 21 0
9 -17 -21 0
4 17 22 0
4 -17 -22 0
3 17 24 0
3 -17 -24 0
4 17 25 0
4 -17 -25 0
8 17 26 0
8 -17 -26 0
7 17 27 0
7 -17 -27 0
10 17 29 0
10 -17 -29 0
4 17 32 0
4 -17 -32 0
9 17 33 0
9 -17 -33 0
2 17 34 0
2 -17 -34 0
5 17 35 0
5 -17 -35 0
1 17 36 0
1 -17 -36 0
8 17 37 0
8 -17 -37 0
8 17 38 0
8 -17 -38 0
3 17 39 0
3 -17 -39 0
2 17 40 0
2 -17 -40 0
9 18 19 0
9 -18 -19 0
8 18 20 0
8 -18 -20 0
1 18 21 0
1 -18 -21 0
5 18 22 0
5 -18 -22 0
10 18 25 0
10 -18 -25 0
8 18 26 0
8 -18 -26 0
3 18 28 0
3 -18 -28 0
5 18 29 0
5 -18 -29 0
9 18 30 0
9 -18 -30 0
1 18 31 0
1 -18 -31 0
1 18 32 0
1 -18 -32 0
4 18 33 0
4 -18 -33 0
4 18 34 0
4 -18 -34 0
7 18 35 0
7 -18 -35 0
9 18 37 0
9 -18 -37 0
2 18 38 0
2 -18 -38 0
1 18 39 0
1 -18 -39 0
1 18 40 0
1 -18 -40 0
5 19 20 0
5 -19 -20 0
8 19 21 0
8 -19 -21 0
7 19 22 0
7 -19 -22 0
5 19 25 0
5 -19 -25 0
2 19 27 0
2 -19 -27 0
6 19 29 0
6 -19 -29 0
6 19 30 0
6 -19 -30 0
6 19 32 0
6 -19 -32 0
6 19 33 0
6 -19 -33 0
4 19 34 0
4 -19 -34 0
4 19 35 0
4 -19 -35 0
9 19 37 0
9 -19 -37 0
5 19 38 0
5 -19 -38 0
2 19 39 0
2 -19 -39 0
7 19 40 0
7 -19 -40 0
6 20 22 0
6 -20 -22 0
7 20 23 0
7 -20 -23 0
6 20 25 0
6 -20 -25 0
3 20 26 0
3 -20 -26 0
9 20 27 0
9 -20 -27 0
1 20 29 0
1 -20 -29 0
1 20 31 0
1 -20 -31 0
10 20 34 0
10 -20 -34 0
2 20 35 0
2 -20 -35 0
5 20 36 0
5 -20 -36 0
3 20 37 0
3 -20 -37 0
9 20 38 0
9 -20 -38 0
3 20 39 0
3 -20 -39 0
4 21 23 0
4 -21 -23 0
9 21 24 0
9 -21 -24 0
4 21 25 0
4 -21 -25 0
9 21 26 0
9 -21 -26 0
7 21 27 0
7 -21 -27 0
1 21 28 0
1 -21 -28 0
3 21 30 0
3 -21 -30 0
8 21 31 0
8 -21 -31 0
7 21 32 0
7 -21 -32 0
9 21 33 0
9 -21 -33 0
4 21 35 0
4 -21 -35 0
3 21 36 0
3 -21 -36 0
2 21 40 0
2 -21 -40 0
7 22 23 0
7 -22 -23 0
2 22 24 0
2 -22 -24 0
7 22 25 0
7 -22 -25 0
8 22 27 0
8 -22 -27 0
8 22 28 0
8 -22 -28 0
3 22 29 0
3 -22 -29 0
5 22 32 0
5 -22 -32 0
4 22 33 0
4 -22 -33 0
5 22 34 0
5 -22 -34 0
3 22 37 0
3 -22 -37 0
4 22 38 0
4 -22 -38 0
6 22 39 0
6 -22 -39 0
2 23 24 0
2 -23 -24 0
6 23 25 0
6 -23 -25 0
1 23 26 0
1 -23 -26 0
4 23 27 0
4 -23 -27 0
4 23 29 0
4 -23 -29 0
4 23 30 0
4 -23 -30 0
8 23 31 0
8 -23 -31 0
3 23 32 0
3 -23 -32 0
7 23 33 0
7 -23 -33 0
6 23 35 0
6 -23 -35 0
10 23 36 0
10 -23 -36 0
7 23 39 0
7 -23 -39 0
9 23 40 0
9 -23 -40 0
7 24 26 0
7 -24 -26 0
4 24 27 0
4 -24 -27 0
7 24 28 0
7 -24 -28 0
1 24 29 0
1 -24 -29 0
6 24 30 0
6 -24 -30 0
9 24 31 0
9 -24 -31 0
7 24 33 0
7 -24 -33 0
7 24 34 0
7 -24 -34 0
6 24 35 0
6 -24 -35 0
5 24 36 0
5 -24 -36 0
4 24 39 0
4 -24 -39 0
8 24 40 0
8 -24 -40 0
9 25 26 0
9 -25 -26 0
7 25 29 0
7 -25 -29 0
2 25 30 0
2 -25 -30 0
1 25 32 0
1 -25 -32 0
1 25 33 0
1 -25 -33 0
7 25 34 0
7 -25 -34 0
2 25 35 0
2 -25 -35 0
7 25 37 0
7 -25 -37 0
8 25 38 0
8 -25 -38 0
6 25 39 0
6 -25 -39 0
1 26 28 0
1 -26 -28 0
1 26 30 0
1 -26 -30 0
4 26 31 0
4 -26 -31 0
3 26 32 0
3 -26 -32 0
7 26 34 0
7 -26 -34 0
9 26 36 0
9 -26 -36 0
2 26 39 0
2 -26 -39 0
4 26 40 0
4 -26 -40 0
7 27 28 0
7 -27 -28 0
9 27 30 0
9 -27 -30 0
7 27 31 0
7 -27 -31 0
4 27 34 0
4 -27 -34 0
9 27 35 0
9 -27 -35 0
2 27 36 0
2 -27 -36 0
2 27 39 0
2 -27 -39 0
6 27 40 0
6 -27 -40 0
9 28 29 0
9 -28 -29 0
7 28 30 0
7 -28 -30 0
10 28 31 0
10 -28 -31 0
2 28 33 0
2 -28 -33 0
4 28 34 0
4 -28 -34 0
8 28 36 0
8 -28 -36 0
9 28 37 0
9 -28 -37 0
6 28 38 0
6 -28 -38 0
8 28 40 0
8 -28 -40 0
10 29 30 0
10 -29 -30 0
3 29 31 0
3 -29 -31 0
10 29 32 0
10 -29 -32 0
6 29 33 0
6 -29 -33 0
10 29 34 0
10 -29 -34 0
5 29 35 0
5 -29 -35 0
6 29 36 0
6 -29 -36 0
10 29 37 0
10 -29 -37 0
8 29 38 0
8 -29 -38 0
9 30 31 0
9 -30 -31 0
6 30 33 0
6 -30 -33 0
7 30 36 0
7 -30 -36 0
10 30 38 0
10 -30 -38 0
10 30 39 0
10 -30 -39 0
4 30 40 0
4 -30 -40 0
9 31 32 0
9 -31 -32 0
6 31 33 0
6 -31 -33 0
7 31 34 0
7 -31 -34 0
8 31 36 0
8 -31 -36 0
8 31 39 0
8 -31 -39 0
8 31 40 0
8 -31 -40 0
3 32 34 0
3 -32 -34 0
7 32 35 0
7 -32 -35 0
5 32 36 0
5 -32 -36 0
2 32 37 0
2 -32 -37 0
8 32 38 0
8 -32 -38 0
9 32 39 0
9 -32 -39 0
9 32 40 0
9 -32 -40 0
7 33 34 0
7 -33 -34 0
5 33 35 0
5 -33 -35 0
7 33 36 0
7 -33 -36 0
6 33 37 0
6 -33 -37 0
7 33 38 0
7 -33 -38 0
6 33 39 0
6 -33 -39 0
2 33 40 0
2 -33 -40 0
6 34 35 0
6 -34 -35 0
1 34 37 0
1 -34 -37 0
8 34 38 0
8 -34 -38 0
6 34 39 0
6 -34 -39 0
9 35 36 0
9 -35 -36 0
6 35 37 0
6 -35 -37 0
2 35 38 0
2 -35 -38 0
5 35 39 0
5 -35 -39 0
6 35 40 0
6 -35 -40 0
1 36 37 0
1 -36 -37 0
9 36 39 0
9 -36 -39 0
4 36 40 0
4 -36 -40 0
7 37 38 0
7 -37 -38 0
5 37 39 0
5 -37 -39 0
2 38 39 0
2 -38 -39 0
5 38 40 0
5 -38 -40 0
